Route #1: 0 56 6 12 44 33 0
Route #2: 0 55 22 37 23 4 1 38 0
Route #3: 0 41 3 48 36 0
Route #4: 0 30 2 59 27 45 5 29 0
Route #5: 0 19 25 60 54 20 26 0
Route #6: 0 13 39 62 57 50 28 15 0
Route #7: 0 17 52 47 18 46 31 43 9 42 0
Route #8: 0 53 21 40 14 58 32 51 35 10 16 0
Route #9: 0 34 8 24 49 61 7 0
Route #10: 0 11 0
Cost 101913:
